NAME : P-n55-k10.444306.tour
COMMENT : Length = 444306
COMMENT : Found by LKH [Keld Helsgaun] Sun Dec 17 22:37:08 2017
TYPE : TOUR
DIMENSION : 64
TOUR_SECTION
1
31
49
22
48
37
38
57
52
17
50
25
19
51
26
61
13
10
40
11
32
59
3
29
23
63
18
41
33
45
4
62
27
47
9
20
15
64
5
46
30
6
16
21
56
35
53
28
14
55
58
8
36
54
12
39
60
7
34
2
44
43
42
24
-1
EOF
